(declare-fun var0 () String)
(assert (RegexIn var0 (RegexConcat (RegexUnion (RegexUnion (Str2Reg "<") (Str2Reg "===")) (RegexPlus (Str2Reg ">"))) (RegexConcat (RegexStar (RegexStar (Str2Reg ";;"))) (RegexConcat (RegexPlus (RegexPlus (Str2Reg ":"))) (RegexConcat (RegexStar (RegexUnion (Str2Reg "..") (Str2Reg "///"))) (RegexConcat (RegexStar (RegexPlus (Str2Reg "-"))) (RegexConcat (RegexStar (RegexStar (Str2Reg ","))) (RegexConcat (RegexUnion (RegexUnion (Str2Reg "))") (Str2Reg "*")) (RegexPlus (Str2Reg "+++"))) (RegexConcat (RegexStar (RegexStar (Str2Reg "("))) (RegexConcat (RegexStar (RegexPlus (Str2Reg "'''"))) (RegexConcat (RegexStar (RegexPlus (Str2Reg "&&"))) (RegexConcat (RegexStar (RegexUnion (Str2Reg "$$$") (Str2Reg "%%"))) (RegexConcat (RegexPlus (RegexUnion (Str2Reg "\"\"") (Str2Reg "##"))) (RegexConcat (RegexPlus (RegexStar (Str2Reg "!!"))) (RegexConcat (RegexStar (RegexPlus (Str2Reg "Z"))) (RegexConcat (RegexStar (RegexStar (Str2Reg "Y"))) (RegexConcat (RegexStar (RegexStar (Str2Reg "XX"))) (RegexConcat (RegexUnion (RegexStar (Str2Reg "V")) (RegexStar (Str2Reg "WW"))) (RegexConcat (RegexUnion (RegexUnion (Str2Reg "S") (Str2Reg "T")) (RegexPlus (Str2Reg "UUU"))) (RegexConcat (RegexUnion (RegexStar (Str2Reg "PPP")) (RegexUnion (Str2Reg "Q") (Str2Reg "RRR"))) (RegexConcat (RegexStar (RegexUnion (Str2Reg "NN") (Str2Reg "O"))) (RegexConcat (RegexPlus (RegexStar (Str2Reg "MMM"))) (RegexConcat (RegexStar (RegexUnion (Str2Reg "KKK") (Str2Reg "LLL"))) (RegexConcat (RegexUnion (RegexUnion (Str2Reg "H") (Str2Reg "I")) (RegexPlus (Str2Reg "J"))) (RegexConcat (RegexUnion (RegexStar (Str2Reg "FF")) (RegexStar (Str2Reg "GG"))) (RegexConcat (RegexUnion (RegexUnion (Str2Reg "C") (Str2Reg "DD")) (RegexPlus (Str2Reg "EE"))) (RegexConcat (RegexStar (RegexUnion (Str2Reg "AAA") (Str2Reg "BBB"))) (RegexConcat (RegexStar (RegexUnion (Str2Reg "yyy") (Str2Reg "zzz"))) (RegexConcat (RegexUnion (RegexStar (Str2Reg "ww")) (RegexPlus (Str2Reg "x"))) (RegexConcat (RegexPlus (RegexStar (Str2Reg "vvv"))) (RegexConcat (RegexUnion (RegexStar (Str2Reg "sss")) (RegexUnion (Str2Reg "t") (Str2Reg "u"))) (RegexConcat (RegexPlus (RegexPlus (Str2Reg "rr"))) (RegexConcat (RegexPlus (RegexPlus (Str2Reg "qqq"))) (RegexConcat (RegexPlus (RegexStar (Str2Reg "ppp"))) (RegexConcat (RegexUnion (RegexUnion (Str2Reg "mmm") (Str2Reg "nnn")) (RegexPlus (Str2Reg "oo"))) (RegexConcat (RegexStar (RegexPlus (Str2Reg "l"))) (RegexConcat (RegexPlus (RegexPlus (Str2Reg "k"))) (RegexConcat (RegexStar (RegexPlus (Str2Reg "jj"))) (RegexConcat (RegexStar (RegexStar (Str2Reg "iii"))) (RegexConcat (RegexStar (RegexPlus (Str2Reg "hh"))) (RegexConcat (RegexUnion (RegexUnion (Str2Reg "ee") (Str2Reg "fff")) (RegexStar (Str2Reg "ggg"))) (RegexConcat (RegexStar (RegexPlus (Str2Reg "d"))) (RegexConcat (RegexPlus (RegexPlus (Str2Reg "c"))) (RegexConcat (RegexPlus (RegexStar (Str2Reg "bbb"))) (RegexConcat (RegexUnion (RegexPlus (Str2Reg "9")) (RegexPlus (Str2Reg "a"))) (RegexConcat (RegexPlus (RegexUnion (Str2Reg "77") (Str2Reg "88"))) (RegexConcat (RegexStar (RegexStar (Str2Reg "666"))) (RegexConcat (RegexPlus (RegexUnion (Str2Reg "44") (Str2Reg "5"))) (RegexConcat (RegexStar (RegexUnion (Str2Reg "2") (Str2Reg "333"))) (RegexConcat (RegexStar (RegexStar (Str2Reg "11"))) (RegexPlus (RegexStar (Str2Reg "00"))))))))))))))))))))))))))))))))))))))))))))))))))))))
(check-sat)